param set_len = 26;
param target = 955678;
param values := [0] 107629 [1] 98933 [2] 41645 [3] 39797 [4] 81687 [5] 104704 [6] 106319 [7] 105383 [8] 87948 [9] 27814 [10] 37489 [11] 104097 [12] 85322 [13] 21993 [14] 5003 [15] 129389 [16] 51799 [17] 100449 [18] 5566 [19] 108741 [20] 71041 [21] 71293 [22] 57193 [23] 6675 [24] 92099 [25] 22104 ;
